\ Model Simple Minimizer
\ LP format - for model browsing. Use MPS format to capture full model detail.
Minimize
  - 3 x_1 + 8 x_2
Subject To
 c_1: 4 x_1 + 2 x_2 <= 12
 c_2: 2 x_1 + 3 x_2 <= 6
Bounds
End
